p cnf 28 32
-1 -2 27 0 
-3 17 20 -2 27 0 
-3 17 20 27 0 
-4 27 0 
-5 -6 27 0 
-7 27 0 
-1 27 0 
-8 -9 27 0 
-10 -7 27 0 
-10 -9 27 0 
-8 -7 27 0 
-10 -6 27 0 
-3 17 20 -11 27 0 
-1 -12 27 0 
-13 14 25 28 0 
-14 13 25 27 0 
-15 16 27 0 
-16 15 27 0 
-17 3 20 27 0 
-10 -18 27 0 
-10 -19 27 0 
-5 -20 3 17 27 0 
-8 -6 27 0 
-8 -19 27 0 
-5 -21 27 0 
-10 -22 27 0 
-18 27 0 
-19 27 0 
-6 27 0 
-23 27 0 
-24 27 0 
-25 13 14 -26 27 0 
